c colouring generated by benchmark framework
p edge 47 236
v 1 1
v 2 5
v 3 4
v 4 4
v 5 3
v 6 0
v 7 0
v 8 2
v 9 5
v 10 0
v 11 1
v 12 1
v 13 3
v 14 4
v 15 4
v 16 3
v 17 0
v 18 0
v 19 4
v 20 4
v 21 0
v 22 3
v 23 2
v 24 2
v 25 3
v 26 4
v 27 5
v 28 0
v 29 0
v 30 2
v 31 0
v 32 5
v 33 2
v 34 3
v 35 3
v 36 5
v 37 4
v 38 5
v 39 0
v 40 3
v 41 0
v 42 0
v 43 5
v 44 0
v 45 4
v 46 5
v 47 1
